min: c;

c = 3.68897114494949 * u4_t1_h1 + 3.80465317995334 * u4_t1_h2 + 2.88243442279745 * u4_t1_h3 + 3.24736215992841 * u4_t1_h4 + 3.24736215992841 * u4_t10_h4 + 3.39361523937722 * u4_t1_h5 + 3.39361523937722 * u4_t10_h5 + 3.72086091258205 * u4_t1_h6 + 3.72086091258205 * u4_t10_h6 + 3.60027343461571 * u4_t1_h7 + 3.60027343461571 * u4_t10_h7 + 5.53635011224041 * u4_t1_h8 + 5.53635011224041 * u4_t9_h8 + 5.53635011224041 * u4_t10_h8 + 4.65351191369647 * u4_t9_h9 + 4.65351191369647 * u4_t10_h9 + 5.82005477994048 * u4_t9_h10 + 5.82005477994048 * u4_t10_h10 + 3.86920329817874 * u4_t2_h11 + 3.86920329817874 * u4_t4_h11 + 3.86920329817874 * u4_t9_h11 + 3.86920329817874 * u4_t10_h11 + 6.32451882850277 * u4_t2_h12 + 6.32451882850277 * u4_t3_h12 + 6.32451882850277 * u4_t4_h12 + 6.32451882850277 * u4_t8_h12 + 6.32451882850277 * u4_t9_h12 + 6.32451882850277 * u4_t10_h12 + 4.7420371412062 * u4_t2_h13 + 4.7420371412062 * u4_t3_h13 + 4.7420371412062 * u4_t4_h13 + 4.7420371412062 * u4_t8_h13 + 4.7420371412062 * u4_t9_h13 + 5.40238194490625 * u4_t2_h14 + 5.40238194490625 * u4_t3_h14 + 5.40238194490625 * u4_t4_h14 + 5.40238194490625 * u4_t8_h14 + 5.40238194490625 * u4_t9_h14 + 5.78492925309961 * u4_t2_h15 + 5.78492925309961 * u4_t3_h15 + 5.78492925309961 * u4_t4_h15 + 5.78492925309961 * u4_t8_h15 + 5.78492925309961 * u4_t9_h15 + 6.34096845204416 * u4_t2_h16 + 6.34096845204416 * u4_t3_h16 + 6.34096845204416 * u4_t4_h16 + 6.34096845204416 * u4_t5_h16 + 6.34096845204416 * u4_t8_h16 + 6.34096845204416 * u4_t9_h16 + 6.64960313543513 * u4_t2_h17 + 6.64960313543513 * u4_t3_h17 + 6.64960313543513 * u4_t5_h17 + 6.64960313543513 * u4_t8_h17 + 6.64960313543513 * u4_t9_h17 + 6.72080835191463 * u4_t2_h18 + 6.72080835191463 * u4_t3_h18 + 6.72080835191463 * u4_t5_h18 + 6.72080835191463 * u4_t8_h18 + 6.72080835191463 * u4_t9_h18 + 5.39202053311001 * u4_t2_h19 + 5.39202053311001 * u4_t3_h19 + 5.39202053311001 * u4_t6_h19 + 5.39202053311001 * u4_t8_h19 + 5.39202053311001 * u4_t9_h19 + 5.13029647968886 * u4_t2_h20 + 5.13029647968886 * u4_t6_h20 + 5.13029647968886 * u4_t9_h20 + 5.53280473024764 * u4_t6_h21 + 6.02896168236726 * u4_t6_h22 + 6.02896168236726 * u4_t7_h22 + 5.49641827749868 * u4_t6_h23 + 5.49641827749868 * u4_t7_h23;
0 <= u4_t1_h1 <= 1;
0 <= u4_t1_h2 <= 1;
0 <= u4_t1_h3 <= 1;
0 <= u4_t1_h4 <= 1;
0 <= u4_t1_h5 <= 1;
0 <= u4_t1_h6 <= 1;
0 <= u4_t1_h7 <= 1;
0 <= u4_t1_h8 <= 1;
u4_t1_h1 + u4_t1_h2 + u4_t1_h3 + u4_t1_h4 + u4_t1_h5 + u4_t1_h6 + u4_t1_h7 + u4_t1_h8 = 1;
0 <= u4_t2_h11 <= 1;
0 <= u4_t2_h12 <= 1;
0 <= u4_t2_h13 <= 1;
0 <= u4_t2_h14 <= 1;
0 <= u4_t2_h15 <= 1;
0 <= u4_t2_h16 <= 1;
0 <= u4_t2_h17 <= 1;
0 <= u4_t2_h18 <= 1;
0 <= u4_t2_h19 <= 1;
0 <= u4_t2_h20 <= 1;
u4_t2_h11 + u4_t2_h12 + u4_t2_h13 + u4_t2_h14 + u4_t2_h15 + u4_t2_h16 + u4_t2_h17 + u4_t2_h18 + u4_t2_h19 + u4_t2_h20 = 2;
0 <= u4_t3_h12 <= 1;
0 <= u4_t3_h13 <= 1;
0 <= u4_t3_h14 <= 1;
0 <= u4_t3_h15 <= 1;
0 <= u4_t3_h16 <= 1;
0 <= u4_t3_h17 <= 1;
0 <= u4_t3_h18 <= 1;
0 <= u4_t3_h19 <= 1;
u4_t3_h12 + u4_t3_h13 + u4_t3_h14 + u4_t3_h15 + u4_t3_h16 + u4_t3_h17 + u4_t3_h18 + u4_t3_h19 = 3;
0 <= u4_t4_h11 <= 1;
0 <= u4_t4_h12 <= 1;
0 <= u4_t4_h13 <= 1;
0 <= u4_t4_h14 <= 1;
0 <= u4_t4_h15 <= 1;
0 <= u4_t4_h16 <= 1;
u4_t4_h11 + u4_t4_h12 + u4_t4_h13 + u4_t4_h14 + u4_t4_h15 + u4_t4_h16 = 3;
0 <= u4_t5_h16 <= 1;
0 <= u4_t5_h17 <= 1;
0 <= u4_t5_h18 <= 1;
u4_t5_h16 + u4_t5_h17 + u4_t5_h18 = 1;
0 <= u4_t6_h19 <= 1;
0 <= u4_t6_h20 <= 1;
0 <= u4_t6_h21 <= 1;
0 <= u4_t6_h22 <= 1;
0 <= u4_t6_h23 <= 1;
u4_t6_h19 + u4_t6_h20 + u4_t6_h21 + u4_t6_h22 + u4_t6_h23 = 3;
0 <= u4_t7_h22 <= 1;
0 <= u4_t7_h23 <= 1;
u4_t7_h22 + u4_t7_h23 = 1;
0 <= u4_t8_h12 <= 1;
0 <= u4_t8_h13 <= 1;
0 <= u4_t8_h14 <= 1;
0 <= u4_t8_h15 <= 1;
0 <= u4_t8_h16 <= 1;
0 <= u4_t8_h17 <= 1;
0 <= u4_t8_h18 <= 1;
0 <= u4_t8_h19 <= 1;
u4_t8_h12 + u4_t8_h13 + u4_t8_h14 + u4_t8_h15 + u4_t8_h16 + u4_t8_h17 + u4_t8_h18 + u4_t8_h19 = 2;
0 <= u4_t9_h8 <= 1;
0 <= u4_t9_h9 <= 1;
0 <= u4_t9_h10 <= 1;
0 <= u4_t9_h11 <= 1;
0 <= u4_t9_h12 <= 1;
0 <= u4_t9_h13 <= 1;
0 <= u4_t9_h14 <= 1;
0 <= u4_t9_h15 <= 1;
0 <= u4_t9_h16 <= 1;
0 <= u4_t9_h17 <= 1;
0 <= u4_t9_h18 <= 1;
0 <= u4_t9_h19 <= 1;
0 <= u4_t9_h20 <= 1;
u4_t9_h8 + u4_t9_h9 + u4_t9_h10 + u4_t9_h11 + u4_t9_h12 + u4_t9_h13 + u4_t9_h14 + u4_t9_h15 + u4_t9_h16 + u4_t9_h17 + u4_t9_h18 + u4_t9_h19 + u4_t9_h20 = 2;
0 <= u4_t10_h4 <= 1;
0 <= u4_t10_h5 <= 1;
0 <= u4_t10_h6 <= 1;
0 <= u4_t10_h7 <= 1;
0 <= u4_t10_h8 <= 1;
0 <= u4_t10_h9 <= 1;
0 <= u4_t10_h10 <= 1;
0 <= u4_t10_h11 <= 1;
0 <= u4_t10_h12 <= 1;
u4_t10_h4 + u4_t10_h5 + u4_t10_h6 + u4_t10_h7 + u4_t10_h8 + u4_t10_h9 + u4_t10_h10 + u4_t10_h11 + u4_t10_h12 = 2;
